-1	367	233	268	252	257	320	421	288	379
63	-1	448	132	211	363	218	211	402	314
127	267	-1	330	497	77	458	189	102	64
380	212	497	-1	183	73	122	236	211	238
239	366	67	403	-1	275	131	159	168	464
288	385	400	163	362	-1	455	89	285	310
260	394	440	294	168	199	-1	52	327	224
168	305	251	99	253	397	150	-1	212	282
240	134	476	344	216	453	155	359	-1	435
106	72	351	147	103	61	363	254	464	-1